(set-option :timeout 5000)
(declare-fun tvw_arr (Int) Int)
(declare-fun tvw_x () Int)
(declare-fun tvw_n () Int)
(assert (<  1   tvw_n ) )
(assert (not  (<  2   tvw_n ) ) )
(assert (>=  (+  (+  ()   0 )   0 )   0 ) )
(assert (>=  (+  (+  (+  (+  (+  (+  (+  ()   0 )   0 )   0 )   0 )   0 )   0 )   0 )   0 ) )
(assert (<  (tvw_arr (+  (+  (+  (+  (+  (+  (+  ()   0 )   0 )   0 )   0 )   0 )   0 )   0 ) )   tvw_x ) )
(assert (>=  (+  (+  (+  (+  ()   0 )   0 )   1 )   0 )   0 ) )
(assert (>=  (+  (+  (+  (+  (+  (+  (+  (+  (+  ()   0 )   0 )   1 )   0 )   0 )   0 )   0 )   0 )   0 )   0 ) )
(assert (and  (=  1   1 )   (=  (tvw_arr (+  (+  (+  (+  (+  (+  (+  (+  (+  ()   0 )   0 )   1 )   0 )   0 )   0 )   0 )   0 )   0 ) )   tvw_x ) ) )
(check-sat)(get-model)
